examples/data.clq
c This graph contains a clique of size 10
p edge 100 2474
e 3 1
e 4 0
e 4 3
e 5 1
e 6 1
e 6 3
e 6 4
e 7 4
e 7 5
e 7 6
e 8 1
e 8 2
e 8 4
e 9 1
e 9 2
e 9 4
e 9 8
e 10 0
e 10 7
e 10 9
e 11 0
e 11 4
e 11 5
e 11 8
e 12 0
e 12 1
e 12 3
e 12 5
e 12 8
e 12 9
e 13 2
e 13 4
e 13 6
e 14 3
e 14 4
e 14 9
e 14 12
e 14 13
e 15 1
e 15 4
e 15 5
e 15 6
e 15 8
e 15 12
e 16 5
e 16 6
e 16 11
e 16 12
e 16 13
e 16 14
e 16 15
e 17 1
e 17 3
e 17 4
e 17 6
e 17 8
e 17 9
e 17 11
e 17 12
e 17 14
e 17 15
e 17 16
e 18 3
e 18 4
e 18 6
e 18 7
e 18 14
e 18 15
e 18 16
e 18 17
e 19 1
e 19 3
e 19 5
e 19 6
e 19 10
e 19 14
e 19 15
e 19 16
e 19 18
e 20 0
e 20 3
e 20 4
e 20 5
e 20 9
e 20 10
e 20 11
e 20 13
e 20 17
e 21 3
e 21 4
e 21 8
e 21 9
e 21 15
e 22 2
e 22 3
e 22 5
e 22 6
e 22 8
e 22 9
e 22 10
e 22 11
e 22 12
e 22 14
e 22 17
e 22 18
e 22 20
e 23 1
e 23 5
e 23 6
e 23 9
e 23 10
e 23 15
e 23 16
e 23 17
e 23 18
e 23 21
e 23 22
e 24 1
e 24 3
e 24 4
e 24 5
e 24 6
e 24 8
e 24 9
e 24 10
e 24 11
e 24 13
e 24 14
e 24 15
e 24 18
e 24 19
e 24 20
e 24 21
e 24 22
e 24 23
e 25 0
e 25 1
e 25 3
e 25 4
e 25 8
e 25 9
e 25 10
e 25 13
e 25 14
e 25 15
e 25 18
e 25 19
e 25 21
e 25 24
e 26 0
e 26 3
e 26 6
e 26 7
e 26 10
e 26 12
e 26 13
e 26 16
e 26 19
e 26 22
e 26 23
e 26 24
e 27 0
e 27 1
e 27 2
e 27 5
e 27 7
e 27 8
e 27 9
e 27 10
e 27 12
e 27 16
e 27 19
e 27 20
e 27 21
e 27 24
e 27 25
e 28 3
e 28 5
e 28 6
e 28 10
e 28 12
e 28 15
e 28 16
e 28 21
e 29 0
e 29 2
e 29 9
e 29 12
e 29 14
e 29 15
e 29 17
e 29 18
e 29 21
e 29 22
e 29 25
e 29 26
e 30 0
e 30 1
e 30 2
e 30 3
e 30 12
e 30 13
e 30 16
e 30 17
e 30 19
e 30 21
e 30 22
e 30 26
e 30 28
e 31 1
e 31 2
e 31 4
e 31 6
e 31 7
e 31 8
e 31 9
e 31 14
e 31 17
e 31 19
e 31 22
e 31 23
e 31 24
e 31 29
e 32 0
e 32 1
e 32 2
e 32 6
e 32 8
e 32 9
e 32 10
e 32 11
e 32 12
e 32 13
e 32 14
e 32 19
e 32 21
e 32 26
e 32 27
e 32 28
e 32 29
e 32 30
e 32 31
e 33 1
e 33 2
e 33 3
e 33 4
e 33 6
e 33 10
e 33 11
e 33 12
e 33 14
e 33 16
e 33 18
e 33 19
e 33 20
e 33 24
e 33 25
e 33 26
e 33 27
e 33 31
e 33 32
e 34 0
e 34 2
e 34 4
e 34 5
e 34 8
e 34 9
e 34 12
e 34 14
e 34 15
e 34 16
e 34 17
e 34 18
e 34 20
e 34 21
e 34 23
e 34 25
e 34 28
e 34 33
e 35 2
e 35 4
e 35 7
e 35 10
e 35 12
e 35 13
e 35 14
e 35 15
e 35 17
e 35 20
e 35 22
e 35 23
e 35 24
e 35 26
e 35 28
e 35 31
e 35 32
e 35 33
e 36 2
e 36 3
e 36 4
e 36 5
e 36 6
e 36 7
e 36 8
e 36 10
e 36 12
e 36 15
e 36 16
e 36 17
e 36 19
e 36 20
e 36 21
e 36 22
e 36 25
e 36 30
e 36 31
e 36 32
e 37 0
e 37 1
e 37 3
e 37 5
e 37 6
e 37 7
e 37 8
e 37 10
e 37 11
e 37 13
e 37 15
e 37 16
e 37 17
e 37 18
e 37 19
e 37 22
e 37 23
e 37 25
e 37 27
e 37 28
e 37 29
e 37 31
e 37 32
e 38 1
e 38 4
e 38 5
e 38 10
e 38 11
e 38 13
e 38 16
e 38 20
e 38 25
e 38 26
e 38 27
e 38 28
e 38 29
e 38 32
e 38 37
e 39 0
e 39 2
e 39 3
e 39 5
e 39 6
e 39 8
e 39 12
e 39 13
e 39 15
e 39 17
e 39 20
e 39 23
e 39 25
e 39 26
e 39 27
e 39 35
e 39 37
e 39 38
e 40 0
e 40 4
e 40 6
e 40 7
e 40 12
e 40 13
e 40 14
e 40 16
e 40 19
e 40 20
e 40 21
e 40 22
e 40 24
e 40 27
e 40 32
e 40 33
e 40 35
e 40 36
e 40 37
e 41 2
e 41 3
e 41 4
e 41 7
e 41 8
e 41 9
e 41 11
e 41 14
e 41 18
e 41 19
e 41 20
e 41 22
e 41 24
e 41 25
e 41 26
e 41 28
e 41 29
e 41 30
e 41 35
e 41 38
e 42 0
e 42 1
e 42 6
e 42 7
e 42 12
e 42 15
e 42 17
e 42 18
e 42 21
e 42 24
e 42 26
e 42 28
e 42 29
e 42 31
e 42 33
e 42 34
e 42 35
e 42 37
e 42 41
e 43 0
e 43 3
e 43 7
e 43 10
e 43 11
e 43 12
e 43 13
e 43 14
e 43 15
e 43 18
e 43 19
e 43 21
e 43 23
e 43 24
e 43 25
e 43 26
e 43 28
e 43 29
e 43 30
e 43 31
e 43 32
e 43 33
e 43 35
e 43 37
e 43 38
e 43 42
e 44 2
e 44 3
e 44 5
e 44 7
e 44 8
e 44 11
e 44 12
e 44 13
e 44 14
e 44 15
e 44 16
e 44 18
e 44 20
e 44 22
e 44 23
e 44 27
e 44 28
e 44 29
e 44 30
e 44 31
e 44 32
e 44 37
e 44 38
e 44 40
e 44 43
e 45 0
e 45 1
e 45 2
e 45 4
e 45 6
e 45 7
e 45 10
e 45 11
e 45 12
e 45 13
e 45 14
e 45 16
e 45 18
e 45 20
e 45 22
e 45 24
e 45 27
e 45 28
e 45 32
e 45 34
e 45 35
e 45 38
e 45 43
e 46 0
e 46 1
e 46 4
e 46 5
e 46 6
e 46 7
e 46 9
e 46 11
e 46 17
e 46 18
e 46 22
e 46 26
e 46 27
e 46 29
e 46 35
e 46 36
e 46 38
e 46 41
e 46 42
e 46 44
e 46 45
e 47 0
e 47 4
e 47 5
e 47 6
e 47 8
e 47 11
e 47 12
e 47 13
e 47 16
e 47 17
e 47 18
e 47 20
e 47 24
e 47 26
e 47 28
e 47 29
e 47 31
e 47 33
e 47 34
e 47 35
e 47 37
e 47 40
e 47 41
e 47 43
e 47 46
e 48 0
e 48 1
e 48 3
e 48 5
e 48 8
e 48 9
e 48 11
e 48 15
e 48 18
e 48 20
e 48 21
e 48 23
e 48 25
e 48 26
e 48 32
e 48 33
e 48 36
e 48 38
e 48 40
e 48 41
e 48 43
e 48 44
e 48 46
e 49 0
e 49 4
e 49 10
e 49 11
e 49 13
e 49 14
e 49 16
e 49 17
e 49 18
e 49 20
e 49 22
e 49 25
e 49 31
e 49 32
e 49 35
e 49 36
e 49 38
e 49 41
e 49 42
e 49 43
e 49 46
e 50 0
e 50 2
e 50 3
e 50 6
e 50 7
e 50 8
e 50 11
e 50 13
e 50 14
e 50 15
e 50 16
e 50 18
e 50 20
e 50 21
e 50 23
e 50 24
e 50 28
e 50 32
e 50 35
e 50 36
e 50 39
e 50 41
e 50 42
e 50 49
e 51 2
e 51 3
e 51 4
e 51 5
e 51 6
e 51 7
e 51 9
e 51 10
e 51 13
e 51 14
e 51 17
e 51 18
e 51 19
e 51 21
e 51 23
e 51 25
e 51 26
e 51 29
e 51 31
e 51 32
e 51 35
e 51 36
e 51 39
e 51 40
e 51 44
e 51 46
e 51 48
e 51 50
e 52 0
e 52 1
e 52 5
e 52 7
e 52 9
e 52 10
e 52 11
e 52 12
e 52 13
e 52 14
e 52 16
e 52 18
e 52 19
e 52 21
e 52 24
e 52 26
e 52 27
e 52 28
e 52 29
e 52 30
e 52 32
e 52 33
e 52 34
e 52 35
e 52 36
e 52 37
e 52 39
e 52 40
e 52 41
e 52 44
e 52 46
e 52 47
e 53 2
e 53 3
e 53 8
e 53 10
e 53 12
e 53 19
e 53 21
e 53 24
e 53 25
e 53 26
e 53 28
e 53 29
e 53 30
e 53 31
e 53 34
e 53 35
e 53 38
e 53 42
e 53 43
e 53 44
e 53 45
e 53 47
e 53 48
e 53 49
e 53 50
e 54 0
e 54 3
e 54 4
e 54 7
e 54 12
e 54 13
e 54 14
e 54 16
e 54 17
e 54 21
e 54 22
e 54 25
e 54 27
e 54 32
e 54 34
e 54 35
e 54 36
e 54 38
e 54 39
e 54 40
e 54 41
e 54 43
e 54 44
e 54 45
e 54 46
e 54 49
e 54 51
e 54 52
e 55 0
e 55 1
e 55 2
e 55 4
e 55 8
e 55 12
e 55 14
e 55 16
e 55 18
e 55 21
e 55 22
e 55 23
e 55 24
e 55 28
e 55 31
e 55 33
e 55 34
e 55 39
e 55 41
e 55 43
e 55 44
e 55 47
e 55 50
e 55 51
e 55 52
e 55 53
e 56 1
e 56 2
e 56 4
e 56 5
e 56 6
e 56 7
e 56 9
e 56 12
e 56 13
e 56 14
e 56 15
e 56 24
e 56 26
e 56 28
e 56 29
e 56 34
e 56 35
e 56 40
e 56 41
e 56 42
e 56 43
e 56 44
e 56 47
e 56 50
e 56 51
e 56 54
e 56 55
e 57 1
e 57 2
e 57 7
e 57 8
e 57 11
e 57 13
e 57 15
e 57 16
e 57 18
e 57 21
e 57 23
e 57 31
e 57 32
e 57 34
e 57 35
e 57 36
e 57 38
e 57 43
e 57 44
e 57 45
e 57 46
e 57 47
e 57 48
e 57 52
e 57 54
e 57 55
e 58 2
e 58 4
e 58 6
e 58 7
e 58 8
e 58 9
e 58 10
e 58 13
e 58 14
e 58 20
e 58 22
e 58 23
e 58 26
e 58 27
e 58 28
e 58 29
e 58 31
e 58 33
e 58 35
e 58 36
e 58 37
e 58 38
e 58 39
e 58 40
e 58 42
e 58 46
e 58 47
e 58 49
e 58 50
e 58 52
e 58 53
e 58 56
e 58 57
e 59 0
e 59 1
e 59 3
e 59 4
e 59 5
e 59 7
e 59 8
e 59 14
e 59 15
e 59 18
e 59 22
e 59 23
e 59 24
e 59 26
e 59 27
e 59 28
e 59 31
e 59 32
e 59 33
e 59 35
e 59 38
e 59 39
e 59 40
e 59 52
e 59 55
e 59 56
e 59 57
e 60 0
e 60 2
e 60 4
e 60 6
e 60 7
e 60 8
e 60 11
e 60 12
e 60 14
e 60 16
e 60 17
e 60 21
e 60 22
e 60 24
e 60 25
e 60 26
e 60 27
e 60 28
e 60 30
e 60 31
e 60 33
e 60 34
e 60 37
e 60 38
e 60 39
e 60 40
e 60 41
e 60 43
e 60 45
e 60 46
e 60 48
e 60 51
e 60 55
e 60 57
e 61 0
e 61 2
e 61 4
e 61 7
e 61 10
e 61 17
e 61 21
e 61 22
e 61 28
e 61 29
e 61 31
e 61 33
e 61 35
e 61 38
e 61 40
e 61 41
e 61 42
e 61 43
e 61 44
e 61 45
e 61 46
e 61 48
e 61 51
e 61 53
e 61 57
e 61 58
e 61 60
e 62 0
e 62 1
e 62 2
e 62 4
e 62 5
e 62 6
e 62 8
e 62 10
e 62 12
e 62 13
e 62 16
e 62 19
e 62 21
e 62 25
e 62 27
e 62 30
e 62 31
e 62 36
e 62 37
e 62 38
e 62 40
e 62 41
e 62 42
e 62 43
e 62 45
e 62 47
e 62 48
e 62 50
e 62 51
e 62 53
e 62 54
e 62 55
e 62 56
e 62 58
e 62 59
e 62 60
e 63 0
e 63 1
e 63 4
e 63 12
e 63 14
e 63 15
e 63 16
e 63 19
e 63 22
e 63 24
e 63 29
e 63 32
e 63 33
e 63 34
e 63 36
e 63 37
e 63 38
e 63 40
e 63 41
e 63 43
e 63 45
e 63 46
e 63 49
e 63 50
e 63 57
e 63 58
e 63 59
e 63 62
e 64 0
e 64 1
e 64 2
e 64 5
e 64 9
e 64 12
e 64 13
e 64 15
e 64 16
e 64 17
e 64 19
e 64 20
e 64 22
e 64 23
e 64 24
e 64 28
e 64 29
e 64 30
e 64 31
e 64 33
e 64 35
e 64 39
e 64 44
e 64 47
e 64 51
e 64 52
e 64 54
e 64 56
e 64 57
e 64 58
e 64 59
e 64 60
e 64 61
e 65 0
e 65 2
e 65 3
e 65 4
e 65 5
e 65 10
e 65 11
e 65 20
e 65 22
e 65 24
e 65 25
e 65 26
e 65 27
e 65 28
e 65 30
e 65 33
e 65 35
e 65 36
e 65 39
e 65 40
e 65 43
e 65 44
e 65 46
e 65 47
e 65 48
e 65 53
e 65 54
e 65 56
e 65 57
e 65 58
e 65 61
e 65 62
e 66 0
e 66 4
e 66 5
e 66 6
e 66 9
e 66 10
e 66 11
e 66 13
e 66 15
e 66 16
e 66 17
e 66 18
e 66 19
e 66 22
e 66 24
e 66 27
e 66 28
e 66 29
e 66 31
e 66 34
e 66 35
e 66 36
e 66 37
e 66 41
e 66 42
e 66 43
e 66 44
e 66 45
e 66 47
e 66 50
e 66 51
e 66 60
e 66 62
e 66 63
e 67 0
e 67 2
e 67 3
e 67 6
e 67 7
e 67 8
e 67 9
e 67 13
e 67 16
e 67 17
e 67 19
e 67 21
e 67 24
e 67 27
e 67 31
e 67 34
e 67 37
e 67 39
e 67 41
e 67 44
e 67 46
e 67 49
e 67 52
e 67 53
e 67 54
e 67 55
e 67 56
e 67 57
e 67 62
e 67 63
e 67 65
e 68 0
e 68 1
e 68 4
e 68 5
e 68 8
e 68 9
e 68 10
e 68 15
e 68 18
e 68 22
e 68 23
e 68 28
e 68 29
e 68 31
e 68 33
e 68 34
e 68 35
e 68 36
e 68 38
e 68 44
e 68 47
e 68 48
e 68 49
e 68 50
e 68 51
e 68 52
e 68 54
e 68 56
e 68 59
e 68 61
e 68 63
e 68 64
e 68 66
e 68 67
e 69 1
e 69 3
e 69 5
e 69 8
e 69 9
e 69 10
e 69 12
e 69 13
e 69 14
e 69 15
e 69 16
e 69 17
e 69 18
e 69 20
e 69 22
e 69 23
e 69 24
e 69 26
e 69 27
e 69 29
e 69 30
e 69 31
e 69 32
e 69 33
e 69 35
e 69 36
e 69 37
e 69 39
e 69 41
e 69 42
e 69 46
e 69 47
e 69 48
e 69 49
e 69 52
e 69 53
e 69 55
e 69 59
e 69 60
e 69 61
e 69 63
e 69 64
e 69 65
e 70 2
e 70 4
e 70 5
e 70 6
e 70 7
e 70 8
e 70 9
e 70 10
e 70 12
e 70 15
e 70 16
e 70 17
e 70 18
e 70 19
e 70 20
e 70 22
e 70 23
e 70 24
e 70 28
e 70 29
e 70 31
e 70 32
e 70 33
e 70 36
e 70 37
e 70 42
e 70 44
e 70 45
e 70 46
e 70 50
e 70 52
e 70 54
e 70 56
e 70 58
e 70 60
e 70 63
e 70 67
e 70 69
e 71 1
e 71 2
e 71 3
e 71 4
e 71 5
e 71 6
e 71 7
e 71 10
e 71 11
e 71 12
e 71 13
e 71 14
e 71 15
e 71 16
e 71 18
e 71 20
e 71 21
e 71 23
e 71 24
e 71 25
e 71 27
e 71 28
e 71 31
e 71 34
e 71 36
e 71 37
e 71 39
e 71 41
e 71 46
e 71 49
e 71 50
e 71 53
e 71 56
e 71 58
e 71 59
e 71 61
e 71 62
e 71 64
e 71 65
e 71 68
e 72 0
e 72 3
e 72 4
e 72 6
e 72 9
e 72 14
e 72 15
e 72 18
e 72 20
e 72 21
e 72 22
e 72 24
e 72 27
e 72 29
e 72 31
e 72 32
e 72 34
e 72 35
e 72 37
e 72 39
e 72 41
e 72 43
e 72 44
e 72 45
e 72 48
e 72 51
e 72 52
e 72 66
e 72 67
e 72 68
e 72 70
e 73 0
e 73 1
e 73 3
e 73 4
e 73 8
e 73 15
e 73 16
e 73 17
e 73 18
e 73 19
e 73 20
e 73 22
e 73 25
e 73 26
e 73 28
e 73 30
e 73 33
e 73 35
e 73 39
e 73 40
e 73 45
e 73 46
e 73 47
e 73 49
e 73 51
e 73 53
e 73 56
e 73 58
e 73 62
e 73 63
e 73 64
e 73 71
e 74 2
e 74 4
e 74 7
e 74 8
e 74 10
e 74 11
e 74 16
e 74 17
e 74 18
e 74 20
e 74 23
e 74 24
e 74 26
e 74 28
e 74 29
e 74 35
e 74 36
e 74 37
e 74 38
e 74 40
e 74 41
e 74 44
e 74 46
e 74 47
e 74 51
e 74 52
e 74 55
e 74 56
e 74 58
e 74 60
e 74 63
e 74 65
e 74 66
e 74 67
e 74 69
e 74 70
e 74 71
e 75 3
e 75 12
e 75 13
e 75 19
e 75 21
e 75 23
e 75 25
e 75 26
e 75 28
e 75 29
e 75 31
e 75 33
e 75 37
e 75 40
e 75 42
e 75 46
e 75 47
e 75 52
e 75 53
e 75 55
e 75 57
e 75 58
e 75 59
e 75 60
e 75 62
e 75 63
e 75 64
e 75 66
e 75 68
e 75 74
e 76 0
e 76 3
e 76 7
e 76 8
e 76 9
e 76 10
e 76 11
e 76 13
e 76 14
e 76 16
e 76 17
e 76 18
e 76 20
e 76 21
e 76 23
e 76 27
e 76 28
e 76 31
e 76 33
e 76 39
e 76 41
e 76 42
e 76 44
e 76 46
e 76 49
e 76 50
e 76 54
e 76 55
e 76 57
e 76 58
e 76 61
e 76 62
e 76 64
e 76 65
e 76 66
e 76 67
e 76 68
e 76 69
e 76 70
e 76 71
e 76 72
e 77 0
e 77 1
e 77 2
e 77 7
e 77 10
e 77 11
e 77 14
e 77 19
e 77 20
e 77 21
e 77 22
e 77 23
e 77 26
e 77 27
e 77 28
e 77 29
e 77 32
e 77 33
e 77 34
e 77 36
e 77 38
e 77 42
e 77 44
e 77 48
e 77 49
e 77 50
e 77 51
e 77 55
e 77 56
e 77 57
e 77 58
e 77 60
e 77 61
e 77 62
e 77 64
e 77 67
e 77 70
e 77 72
e 77 73
e 77 74
e 78 2
e 78 3
e 78 7
e 78 8
e 78 9
e 78 10
e 78 11
e 78 12
e 78 13
e 78 15
e 78 19
e 78 20
e 78 21
e 78 22
e 78 23
e 78 24
e 78 25
e 78 29
e 78 30
e 78 36
e 78 39
e 78 41
e 78 46
e 78 47
e 78 48
e 78 49
e 78 51
e 78 52
e 78 55
e 78 56
e 78 57
e 78 61
e 78 62
e 78 66
e 78 67
e 78 69
e 78 70
e 78 71
e 78 72
e 78 73
e 78 74
e 78 77
e 79 2
e 79 4
e 79 6
e 79 7
e 79 9
e 79 13
e 79 14
e 79 16
e 79 17
e 79 20
e 79 21
e 79 30
e 79 34
e 79 35
e 79 36
e 79 37
e 79 38
e 79 39
e 79 40
e 79 41
e 79 43
e 79 45
e 79 46
e 79 48
e 79 49
e 79 50
e 79 51
e 79 52
e 79 53
e 79 54
e 79 55
e 79 57
e 79 61
e 79 62
e 79 69
e 79 71
e 79 72
e 79 74
e 80 2
e 80 3
e 80 4
e 80 5
e 80 6
e 80 7
e 80 8
e 80 9
e 80 10
e 80 12
e 80 13
e 80 14
e 80 19
e 80 22
e 80 23
e 80 24
e 80 27
e 80 28
e 80 29
e 80 31
e 80 34
e 80 36
e 80 39
e 80 40
e 80 42
e 80 44
e 80 45
e 80 48
e 80 49
e 80 50
e 80 51
e 80 52
e 80 53
e 80 55
e 80 57
e 80 58
e 80 59
e 80 60
e 80 61
e 80 62
e 80 63
e 80 64
e 80 67
e 80 70
e 80 71
e 80 73
e 80 77
e 80 78
e 80 79
e 81 0
e 81 1
e 81 5
e 81 7
e 81 8
e 81 9
e 81 10
e 81 12
e 81 13
e 81 15
e 81 16
e 81 18
e 81 20
e 81 24
e 81 25
e 81 30
e 81 31
e 81 32
e 81 37
e 81 38
e 81 39
e 81 40
e 81 44
e 81 47
e 81 48
e 81 51
e 81 54
e 81 56
e 81 63
e 81 66
e 81 68
e 81 69
e 81 74
e 81 76
e 81 78
e 81 79
e 82 2
e 82 3
e 82 5
e 82 6
e 82 7
e 82 9
e 82 10
e 82 12
e 82 13
e 82 16
e 82 17
e 82 20
e 82 25
e 82 27
e 82 29
e 82 30
e 82 31
e 82 35
e 82 37
e 82 41
e 82 42
e 82 44
e 82 45
e 82 48
e 82 52
e 82 53
e 82 54
e 82 57
e 82 58
e 82 59
e 82 60
e 82 61
e 82 63
e 82 65
e 82 67
e 82 69
e 82 70
e 82 71
e 82 72
e 82 73
e 82 74
e 82 80
e 82 81
e 83 0
e 83 1
e 83 5
e 83 6
e 83 10
e 83 11
e 83 15
e 83 16
e 83 19
e 83 21
e 83 25
e 83 27
e 83 28
e 83 33
e 83 39
e 83 40
e 83 43
e 83 46
e 83 47
e 83 48
e 83 49
e 83 52
e 83 53
e 83 57
e 83 58
e 83 59
e 83 61
e 83 65
e 83 67
e 83 68
e 83 69
e 83 71
e 83 72
e 83 73
e 83 74
e 83 75
e 83 78
e 83 80
e 84 0
e 84 1
e 84 3
e 84 4
e 84 6
e 84 7
e 84 10
e 84 12
e 84 13
e 84 15
e 84 16
e 84 17
e 84 18
e 84 20
e 84 22
e 84 24
e 84 25
e 84 27
e 84 28
e 84 30
e 84 31
e 84 33
e 84 34
e 84 35
e 84 36
e 84 38
e 84 40
e 84 41
e 84 43
e 84 45
e 84 47
e 84 52
e 84 53
e 84 54
e 84 56
e 84 57
e 84 58
e 84 59
e 84 65
e 84 69
e 84 71
e 84 72
e 84 74
e 84 76
e 84 77
e 84 82
e 84 83
e 85 2
e 85 4
e 85 5
e 85 6
e 85 9
e 85 12
e 85 13
e 85 14
e 85 16
e 85 20
e 85 21
e 85 24
e 85 26
e 85 27
e 85 28
e 85 29
e 85 31
e 85 32
e 85 34
e 85 35
e 85 36
e 85 37
e 85 38
e 85 40
e 85 43
e 85 46
e 85 47
e 85 51
e 85 52
e 85 56
e 85 59
e 85 60
e 85 62
e 85 64
e 85 65
e 85 67
e 85 69
e 85 70
e 85 71
e 85 79
e 85 84
e 86 0
e 86 2
e 86 3
e 86 4
e 86 6
e 86 7
e 86 8
e 86 10
e 86 20
e 86 21
e 86 22
e 86 24
e 86 28
e 86 29
e 86 30
e 86 31
e 86 35
e 86 38
e 86 44
e 86 45
e 86 47
e 86 48
e 86 49
e 86 50
e 86 51
e 86 52
e 86 53
e 86 54
e 86 55
e 86 58
e 86 59
e 86 60
e 86 63
e 86 65
e 86 66
e 86 67
e 86 68
e 86 71
e 86 76
e 86 77
e 86 78
e 86 79
e 86 81
e 87 0
e 87 6
e 87 11
e 87 12
e 87 13
e 87 14
e 87 15
e 87 16
e 87 22
e 87 23
e 87 26
e 87 27
e 87 29
e 87 30
e 87 31
e 87 37
e 87 38
e 87 40
e 87 41
e 87 43
e 87 44
e 87 45
e 87 46
e 87 47
e 87 49
e 87 50
e 87 53
e 87 56
e 87 57
e 87 58
e 87 59
e 87 62
e 87 63
e 87 64
e 87 65
e 87 66
e 87 69
e 87 70
e 87 71
e 87 73
e 87 76
e 87 77
e 87 78
e 87 79
e 87 80
e 87 81
e 87 82
e 87 83
e 87 86
e 88 1
e 88 5
e 88 6
e 88 7
e 88 8
e 88 9
e 88 10
e 88 11
e 88 12
e 88 15
e 88 16
e 88 17
e 88 19
e 88 21
e 88 22
e 88 24
e 88 25
e 88 33
e 88 34
e 88 36
e 88 37
e 88 42
e 88 45
e 88 46
e 88 47
e 88 48
e 88 49
e 88 50
e 88 51
e 88 52
e 88 53
e 88 54
e 88 55
e 88 57
e 88 58
e 88 62
e 88 64
e 88 66
e 88 67
e 88 69
e 88 70
e 88 72
e 88 73
e 88 78
e 88 81
e 88 82
e 88 83
e 88 85
e 89 0
e 89 2
e 89 5
e 89 9
e 89 10
e 89 12
e 89 13
e 89 14
e 89 17
e 89 19
e 89 22
e 89 25
e 89 28
e 89 30
e 89 32
e 89 33
e 89 34
e 89 36
e 89 37
e 89 38
e 89 39
e 89 40
e 89 45
e 89 46
e 89 48
e 89 50
e 89 51
e 89 52
e 89 54
e 89 55
e 89 56
e 89 57
e 89 62
e 89 64
e 89 74
e 89 75
e 89 76
e 89 78
e 89 79
e 89 80
e 89 83
e 89 86
e 89 88
e 90 0
e 90 4
e 90 12
e 90 13
e 90 14
e 90 18
e 90 20
e 90 21
e 90 23
e 90 24
e 90 25
e 90 27
e 90 30
e 90 32
e 90 35
e 90 36
e 90 38
e 90 39
e 90 40
e 90 42
e 90 44
e 90 47
e 90 51
e 90 54
e 90 55
e 90 58
e 90 59
e 90 60
e 90 62
e 90 66
e 90 68
e 90 70
e 90 72
e 90 74
e 90 76
e 90 79
e 90 80
e 90 82
e 90 83
e 90 84
e 90 85
e 90 86
e 90 88
e 91 0
e 91 2
e 91 3
e 91 4
e 91 9
e 91 10
e 91 11
e 91 14
e 91 16
e 91 18
e 91 19
e 91 26
e 91 27
e 91 29
e 91 33
e 91 34
e 91 36
e 91 38
e 91 39
e 91 40
e 91 42
e 91 43
e 91 44
e 91 47
e 91 48
e 91 49
e 91 50
e 91 53
e 91 56
e 91 61
e 91 63
e 91 66
e 91 72
e 91 73
e 91 78
e 91 80
e 91 81
e 91 85
e 91 88
e 91 89
e 91 90
e 92 3
e 92 4
e 92 8
e 92 10
e 92 11
e 92 16
e 92 19
e 92 21
e 92 25
e 92 26
e 92 27
e 92 28
e 92 31
e 92 32
e 92 34
e 92 35
e 92 36
e 92 37
e 92 41
e 92 46
e 92 47
e 92 48
e 92 51
e 92 52
e 92 57
e 92 58
e 92 59
e 92 61
e 92 62
e 92 63
e 92 66
e 92 67
e 92 69
e 92 74
e 92 76
e 92 77
e 92 78
e 92 80
e 92 83
e 92 84
e 92 86
e 92 87
e 92 88
e 92 89
e 92 90
e 93 0
e 93 2
e 93 3
e 93 5
e 93 7
e 93 11
e 93 12
e 93 13
e 93 16
e 93 18
e 93 23
e 93 25
e 93 26
e 93 28
e 93 34
e 93 35
e 93 36
e 93 38
e 93 39
e 93 40
e 93 41
e 93 42
e 93 43
e 93 44
e 93 45
e 93 48
e 93 49
e 93 50
e 93 53
e 93 56
e 93 57
e 93 60
e 93 61
e 93 62
e 93 64
e 93 68
e 93 69
e 93 74
e 93 75
e 93 76
e 93 77
e 93 80
e 93 81
e 93 82
e 93 83
e 93 85
e 93 89
e 94 0
e 94 4
e 94 5
e 94 6
e 94 10
e 94 14
e 94 15
e 94 16
e 94 18
e 94 20
e 94 21
e 94 22
e 94 24
e 94 26
e 94 27
e 94 28
e 94 29
e 94 34
e 94 35
e 94 36
e 94 37
e 94 38
e 94 39
e 94 40
e 94 43
e 94 44
e 94 45
e 94 46
e 94 47
e 94 49
e 94 52
e 94 53
e 94 54
e 94 55
e 94 56
e 94 60
e 94 62
e 94 63
e 94 64
e 94 65
e 94 66
e 94 69
e 94 75
e 94 78
e 94 81
e 94 82
e 94 83
e 94 84
e 94 86
e 94 89
e 94 90
e 94 93
e 95 1
e 95 2
e 95 4
e 95 5
e 95 12
e 95 13
e 95 15
e 95 18
e 95 19
e 95 23
e 95 25
e 95 29
e 95 30
e 95 32
e 95 35
e 95 37
e 95 38
e 95 40
e 95 41
e 95 42
e 95 45
e 95 48
e 95 51
e 95 52
e 95 53
e 95 54
e 95 56
e 95 59
e 95 61
e 95 64
e 95 65
e 95 68
e 95 71
e 95 72
e 95 74
e 95 76
e 95 77
e 95 78
e 95 81
e 95 84
e 95 85
e 95 86
e 95 87
e 95 89
e 95 92
e 96 0
e 96 1
e 96 5
e 96 6
e 96 7
e 96 8
e 96 9
e 96 12
e 96 13
e 96 14
e 96 15
e 96 24
e 96 25
e 96 27
e 96 29
e 96 30
e 96 36
e 96 37
e 96 40
e 96 43
e 96 48
e 96 49
e 96 50
e 96 53
e 96 55
e 96 57
e 96 59
e 96 62
e 96 63
e 96 65
e 96 68
e 96 71
e 96 72
e 96 73
e 96 75
e 96 77
e 96 78
e 96 79
e 96 82
e 96 88
e 96 90
e 96 92
e 96 93
e 96 95
e 97 1
e 97 3
e 97 5
e 97 6
e 97 8
e 97 12
e 97 14
e 97 15
e 97 16
e 97 20
e 97 23
e 97 27
e 97 28
e 97 30
e 97 32
e 97 33
e 97 38
e 97 40
e 97 43
e 97 54
e 97 56
e 97 59
e 97 60
e 97 61
e 97 64
e 97 68
e 97 69
e 97 71
e 97 72
e 97 74
e 97 76
e 97 77
e 97 81
e 97 82
e 97 85
e 97 86
e 97 87
e 97 95
e 98 0
e 98 2
e 98 3
e 98 4
e 98 5
e 98 9
e 98 12
e 98 13
e 98 14
e 98 15
e 98 18
e 98 20
e 98 21
e 98 22
e 98 24
e 98 26
e 98 29
e 98 30
e 98 31
e 98 34
e 98 35
e 98 36
e 98 37
e 98 38
e 98 39
e 98 40
e 98 42
e 98 44
e 98 48
e 98 50
e 98 51
e 98 52
e 98 53
e 98 54
e 98 56
e 98 58
e 98 59
e 98 62
e 98 65
e 98 66
e 98 69
e 98 74
e 98 76
e 98 77
e 98 80
e 98 81
e 98 82
e 98 85
e 98 86
e 98 87
e 98 89
e 98 90
e 98 92
e 98 93
e 98 94
e 99 0
e 99 1
e 99 3
e 99 4
e 99 9
e 99 10
e 99 11
e 99 12
e 99 13
e 99 15
e 99 17
e 99 22
e 99 24
e 99 25
e 99 26
e 99 30
e 99 31
e 99 32
e 99 34
e 99 37
e 99 38
e 99 39
e 99 40
e 99 41
e 99 45
e 99 51
e 99 52
e 99 54
e 99 56
e 99 57
e 99 58
e 99 59
e 99 60
e 99 62
e 99 65
e 99 66
e 99 67
e 99 70
e 99 73
e 99 74
e 99 76
e 99 77
e 99 78
e 99 79
e 99 80
e 99 83
e 99 86
e 99 88
e 99 89
e 99 91
e 99 93
e 99 94
e 99 95
e 99 97
e 99 98
