examples/data.txt
519220
38051
54614
37791
1128
27359
14238
40151
26854
23730
40225
65308
12132
36047
46236
8688
17055
37713
50712
53453
32052
52202
31176
37617
43606
27037
39862
11988
54035
15841
28825
26124
12625
