examples/data.sol
10
4 13 20 24 35 40 47 84 85 90
